Gurobi Optimizer version 9.1.2 build v9.1.2rc0 (linux64)
Thread count: 36 physical cores, 72 logical processors, using up to 32 threads
Optimize a model with 12 rows, 57 columns and 590 nonzeros
Model fingerprint: 0xf32eec78
Model has 47 quadratic constraints
Coefficient statistics:
  Matrix range     [2e-05, 3e+00]
  QMatrix range    [1e+00, 1e+00]
  QLMatrix range   [1e+00, 1e+00]
  Objective range  [8e-03, 7e-01]
  Bounds range     [1e+00, 1e+00]
  RHS range        [1e+00, 1e+00]
Presolve removed 9 rows and 0 columns

Continuous model is non-convex -- solving as a MIP.

Presolve removed 9 rows and 0 columns
Presolve time: 0.00s
Presolved: 189 rows, 57 columns, 443 nonzeros
Presolved model has 47 bilinear constraint(s)
Variable types: 57 continuous, 0 integer (0 binary)

Root relaxation: objective -1.743721e+00, 44 iterations, 0.00 seconds

    Nodes    |    Current Node    |     Objective Bounds      |     Work
 Expl Unexpl |  Obj  Depth IntInf | Incumbent    BestBd   Gap | It/Node Time

     0     0   -1.74372    0   38          -   -1.74372      -     -    0s
H    0     0                       0.6147548   -1.74372   384%     -    0s
     0     0   -1.64739    0    1    0.61475   -1.64739   368%     -    0s
H    0     0                      -1.6450460   -1.64739  0.14%     -    0s
     0     0     cutoff    0        -1.64505   -1.64505  0.00%     -    0s

Cutting planes:
  RLT: 25
  BQP: 3

Explored 1 nodes (76 simplex iterations) in 0.01 seconds
Thread count was 32 (of 72 available processors)

Solution count 2: -1.64505 0.614755 
No other solutions better than -1.64505

Optimal solution found (tolerance 1.00e-04)
Best objective -1.645045978473e+00, best bound -1.645045978473e+00, gap 0.0000%

User-callback calls 78, time in user-callback 0.00 sec
Gurobi Optimizer version 9.1.2 build v9.1.2rc0 (linux64)
Thread count: 36 physical cores, 72 logical processors, using up to 32 threads
Optimize a model with 60 rows, 300 columns and 15500 nonzeros
Model fingerprint: 0x78acc220
Model has 250 quadratic constraints
Coefficient statistics:
  Matrix range     [1e-06, 4e+00]
  QMatrix range    [1e+00, 1e+00]
  QLMatrix range   [1e+00, 1e+00]
  Objective range  [3e-04, 1e+00]
  Bounds range     [1e+00, 1e+00]
  RHS range        [1e+00, 1e+00]
Presolve removed 11 rows and 0 columns

Continuous model is non-convex -- solving as a MIP.

Presolve removed 11 rows and 0 columns
Presolve time: 0.01s
Presolved: 1049 rows, 300 columns, 14163 nonzeros
Presolved model has 250 bilinear constraint(s)
Variable types: 300 continuous, 0 integer (0 binary)

Root relaxation: objective -3.091961e+01, 374 iterations, 0.02 seconds

    Nodes    |    Current Node    |     Objective Bounds      |     Work
 Expl Unexpl |  Obj  Depth IntInf | Incumbent    BestBd   Gap | It/Node Time

     0     0  -30.91961    0  199          -  -30.91961      -     -    0s
     0     0  -28.32547    0  161          -  -28.32547      -     -    0s
     0     0  -27.81624    0  143          -  -27.81624      -     -    0s
     0     0  -27.80951    0  133          -  -27.80951      -     -    0s
     0     0  -27.76679    0  133          -  -27.76679      -     -    0s
     0     0  -27.76229    0  133          -  -27.76229      -     -    0s
H    0     0                     -22.4098937  -27.76229  23.9%     -    0s
H    0     0                     -23.1464005  -27.76229  19.9%     -    0s
H    0     0                     -23.2702756  -27.76229  19.3%     -    0s
     0     2  -27.76229    0  133  -23.27028  -27.76229  19.3%     -    0s
* 1645  1415              43     -24.8084871  -26.38250  6.34%  55.1    1s
* 1646  1415              43     -24.8084875  -26.38250  6.34%  55.0    1s
* 1875  1430              62     -25.5637763  -26.29559  2.86%  52.2    2s
* 1876  1430              63     -25.5637782  -26.29559  2.86%  52.1    2s
* 2349  1324              54     -25.5637950  -26.22016  2.57%  50.5    2s
* 2628  1374              53     -25.5637976  -26.22016  2.57%  47.9    2s
* 3153  1484              47     -25.5638318  -26.22016  2.57%  42.8    2s
* 3621  1572              42     -25.5639184  -26.22016  2.57%  39.2    2s
* 3624  1572              42     -25.5640238  -26.22016  2.57%  39.1    2s
* 3681  1572              40     -25.5644183  -26.22016  2.57%  38.8    2s
* 3682  1572              40     -25.5644197  -26.22016  2.57%  38.8    2s
* 3834  1639              48     -25.5661558  -26.22016  2.56%  37.8    2s
* 4098  1690              51     -25.5665118  -26.22016  2.56%  36.5    2s
* 4292  1690              43     -25.5672818  -26.22016  2.55%  35.5    2s
* 4795  1786              50     -25.5674761  -26.22016  2.55%  33.5    3s
* 4797  1786              49     -25.5674935  -26.22016  2.55%  33.5    3s
* 4801  1786              51     -25.5675000  -26.22016  2.55%  33.5    3s
* 4803  1786              50     -25.5675184  -26.22016  2.55%  33.5    3s
* 4856  1786              46     -25.5678326  -26.22016  2.55%  33.2    3s
* 5294  1777              58     -25.5684265  -26.22016  2.55%  31.6    3s
* 5295  1777              58     -25.5684267  -26.22016  2.55%  31.5    3s
* 5296  1777              57     -25.5684270  -26.22016  2.55%  31.5    3s
* 5297  1777              56     -25.5684275  -26.22016  2.55%  31.5    3s
* 5383  1777              48     -25.5687184  -26.22016  2.55%  31.2    3s
* 5995  1881              44     -25.5687258  -26.22016  2.55%  29.5    3s
* 5998  1881              44     -25.5687262  -26.22016  2.55%  29.5    3s
  8326   354  -25.56961   52   12  -25.56873  -25.66611  0.38%  37.0    5s
* 8333   354              58     -25.5696101  -25.66611  0.38%  37.0    5s
* 8335   354              59     -25.5696583  -25.66611  0.38%  37.0    5s
* 8381   354              61     -25.5719745  -25.66611  0.37%  36.9    5s
* 8383   354              59     -25.5719745  -25.66611  0.37%  36.9    5s
* 8466   354              67     -25.5723016  -25.66611  0.37%  36.6    5s
* 8821   485              59     -25.5734310  -25.62786  0.21%  35.5    5s
* 8823   485              60     -25.5734332  -25.62786  0.21%  35.5    5s
* 9402   609              62     -25.5742266  -25.60138  0.11%  33.8    5s
* 9403   609              62     -25.5742277  -25.60138  0.11%  33.8    5s
* 9408   609              61     -25.5743087  -25.60138  0.11%  33.8    5s
* 9709   655              60     -25.5753538  -25.59560  0.08%  33.0    5s
* 9989   702              64     -25.5754208  -25.59202  0.06%  32.3    5s
* 9990   702              64     -25.5754217  -25.59202  0.06%  32.3    5s
*10100   788              65     -25.5754264  -25.59202  0.06%  32.1    5s
*10101   788              65     -25.5754293  -25.59202  0.06%  32.1    5s
*10232   788              62     -25.5754702  -25.59202  0.06%  31.7    5s
*10234   788              62     -25.5754802  -25.59202  0.06%  31.7    5s
*10235   788              62     -25.5754805  -25.59202  0.06%  31.7    5s
*10290   788              61     -25.5761021  -25.59202  0.06%  31.6    5s
*10292   788              62     -25.5761603  -25.59202  0.06%  31.6    5s
*10293   788              62     -25.5761610  -25.59202  0.06%  31.6    5s
*10345   862              65     -25.5767370  -25.59202  0.06%  31.4    5s
*10436   862              62     -25.5773624  -25.59202  0.06%  31.2    5s
*10837   826              63     -25.5773680  -25.58055  0.01%  30.2    5s
*10876   826              74     -25.5776925  -25.58055  0.01%  30.1    5s
*11116   826              69     -25.5779600  -25.58055  0.01%  29.5    5s
*11211   809              71     -25.5780046  -25.57916  0.00%  29.3    5s
*11446   809              71     -25.5780623  -25.57916  0.00%  28.8    5s

Explored 11547 nodes (330207 simplex iterations) in 5.44 seconds
Thread count was 32 (of 72 available processors)

Solution count 10: -25.5781 -25.578 -25.578 ... -25.5755

Optimal solution found (tolerance 1.00e-04)
Best objective -2.557806226261e+01, best bound -2.557916192866e+01, gap 0.0043%

User-callback calls 23919, time in user-callback 0.01 sec



objective value: -25.57806226261128
objective bound: -25.579161928659474
x_opt: [0.0, 1.0, 1.0, 0.0, 0.0, 0.0, 1.0, 1.0, 0.0, 0.0, 0.11595103501214327, 0.3228626944738746, 0.0, 1.0, 1.0, 1.0, 0.0, 1.0, 0.0, 0.0, 0.0, 1.0, 1.0, 1.0, 0.0, 1.0, 1.0, 1.0, 0.0, 0.7509923068060327, 0.9074314473579588, 0.7075376972404746, 0.0, 0.2890533410397634, 1.0, 1.0, 0.9590743772064588, 0.9999991144203819, 0.6040341745658564, 1.0, 0.9999903951952033, 0.43636963113135335, 1.0, 0.0, 0.0, 0.7846680318600466, 5.210946691508456e-18, 0.0, 0.0, 1.0]
GUROBI solution time: 5.4384191036224365

